c Reduced graph for r15 generated by Cyril Grelier
p edge 198 2055
e 1 2
e 1 3
e 1 4
e 1 5
e 1 7
e 1 8
e 1 10
e 1 11
e 1 12
e 1 13
e 1 17
e 1 18
e 1 19
e 1 20
e 1 24
e 1 28
e 1 29
e 1 37
e 1 52
e 1 55
e 1 56
e 1 57
e 1 58
e 1 59
e 1 60
e 1 92
e 1 139
e 1 140
e 2 3
e 2 4
e 2 6
e 2 7
e 2 8
e 2 13
e 2 14
e 2 15
e 2 17
e 2 18
e 2 19
e 2 20
e 2 24
e 2 25
e 2 26
e 2 27
e 2 28
e 2 29
e 2 39
e 2 52
e 2 60
e 2 64
e 2 65
e 2 66
e 2 96
e 2 97
e 2 144
e 3 4
e 3 7
e 3 8
e 3 9
e 3 13
e 3 17
e 3 18
e 3 19
e 3 20
e 3 21
e 3 22
e 3 23
e 3 24
e 3 28
e 3 29
e 3 34
e 3 35
e 3 36
e 3 52
e 3 53
e 3 60
e 3 88
e 3 89
e 3 90
e 3 115
e 4 7
e 4 8
e 4 13
e 4 16
e 4 17
e 4 18
e 4 19
e 4 20
e 4 24
e 4 28
e 4 29
e 4 31
e 4 43
e 4 44
e 4 52
e 4 60
e 4 72
e 4 100
e 4 101
e 4 102
e 4 103
e 4 104
e 4 125
e 4 170
e 5 6
e 5 9
e 5 10
e 5 11
e 5 12
e 5 16
e 5 30
e 5 32
e 5 33
e 5 37
e 5 38
e 5 45
e 5 46
e 5 54
e 5 55
e 5 56
e 5 57
e 5 58
e 5 59
e 5 67
e 5 68
e 5 92
e 5 111
e 5 139
e 5 140
e 6 9
e 6 14
e 6 15
e 6 16
e 6 25
e 6 26
e 6 27
e 6 30
e 6 32
e 6 33
e 6 38
e 6 39
e 6 45
e 6 46
e 6 54
e 6 64
e 6 65
e 6 66
e 6 67
e 6 68
e 6 96
e 6 97
e 6 111
e 6 144
e 7 8
e 7 13
e 7 17
e 7 18
e 7 19
e 7 20
e 7 24
e 7 28
e 7 29
e 7 30
e 7 40
e 7 41
e 7 42
e 7 52
e 7 60
e 7 69
e 7 70
e 7 71
e 7 122
e 7 123
e 7 124
e 7 179
e 8 13
e 8 17
e 8 18
e 8 19
e 8 20
e 8 24
e 8 28
e 8 29
e 8 33
e 8 50
e 8 51
e 8 52
e 8 60
e 8 80
e 8 81
e 8 82
e 8 130
e 8 131
e 8 132
e 8 151
e 8 182
e 9 16
e 9 21
e 9 22
e 9 23
e 9 30
e 9 32
e 9 33
e 9 34
e 9 35
e 9 36
e 9 38
e 9 45
e 9 46
e 9 53
e 9 54
e 9 67
e 9 68
e 9 88
e 9 89
e 9 90
e 9 111
e 9 115
e 10 11
e 10 12
e 10 21
e 10 37
e 10 40
e 10 47
e 10 50
e 10 55
e 10 56
e 10 57
e 10 58
e 10 59
e 10 61
e 10 73
e 10 76
e 10 83
e 10 86
e 10 92
e 10 99
e 10 136
e 10 139
e 10 140
e 10 141
e 11 12
e 11 14
e 11 22
e 11 31
e 11 37
e 11 41
e 11 48
e 11 55
e 11 56
e 11 57
e 11 58
e 11 59
e 11 62
e 11 74
e 11 77
e 11 84
e 11 87
e 11 92
e 11 98
e 11 133
e 11 139
e 11 140
e 12 15
e 12 23
e 12 37
e 12 42
e 12 49
e 12 51
e 12 55
e 12 56
e 12 57
e 12 58
e 12 59
e 12 63
e 12 75
e 12 85
e 12 91
e 12 92
e 12 134
e 12 137
e 12 139
e 12 140
e 12 142
e 13 17
e 13 18
e 13 19
e 13 20
e 13 24
e 13 28
e 13 29
e 13 38
e 13 52
e 13 60
e 13 61
e 13 62
e 13 63
e 13 93
e 13 94
e 13 95
e 13 143
e 13 162
e 13 163
e 14 15
e 14 22
e 14 25
e 14 26
e 14 27
e 14 31
e 14 39
e 14 41
e 14 48
e 14 62
e 14 64
e 14 65
e 14 66
e 14 74
e 14 77
e 14 84
e 14 87
e 14 96
e 14 97
e 14 98
e 14 133
e 14 144
e 15 23
e 15 25
e 15 26
e 15 27
e 15 39
e 15 42
e 15 49
e 15 51
e 15 63
e 15 64
e 15 65
e 15 66
e 15 75
e 15 85
e 15 91
e 15 96
e 15 97
e 15 134
e 15 137
e 15 142
e 15 144
e 16 30
e 16 31
e 16 32
e 16 33
e 16 38
e 16 43
e 16 44
e 16 45
e 16 46
e 16 54
e 16 67
e 16 68
e 16 72
e 16 100
e 16 101
e 16 102
e 16 103
e 16 104
e 16 111
e 16 125
e 16 170
e 17 18
e 17 19
e 17 20
e 17 24
e 17 28
e 17 29
e 17 45
e 17 52
e 17 60
e 17 73
e 17 74
e 17 75
e 17 105
e 17 106
e 17 126
e 17 146
e 17 147
e 17 171
e 18 19
e 18 20
e 18 24
e 18 28
e 18 29
e 18 46
e 18 52
e 18 60
e 18 76
e 18 77
e 18 107
e 18 108
e 18 109
e 18 127
e 18 148
e 18 149
e 18 172
e 19 20
e 19 24
e 19 28
e 19 29
e 19 52
e 19 60
e 19 83
e 19 84
e 19 85
e 19 112
e 19 113
e 19 152
e 19 153
e 19 173
e 19 192
e 20 24
e 20 28
e 20 29
e 20 52
e 20 60
e 20 86
e 20 87
e 20 114
e 20 135
e 20 154
e 20 155
e 20 156
e 20 174
e 20 193
e 21 22
e 21 23
e 21 34
e 21 35
e 21 36
e 21 40
e 21 47
e 21 50
e 21 53
e 21 61
e 21 73
e 21 76
e 21 83
e 21 86
e 21 88
e 21 89
e 21 90
e 21 99
e 21 115
e 21 136
e 21 141
e 22 23
e 22 31
e 22 34
e 22 35
e 22 36
e 22 41
e 22 48
e 22 53
e 22 62
e 22 74
e 22 77
e 22 84
e 22 87
e 22 88
e 22 89
e 22 90
e 22 98
e 22 115
e 22 133
e 23 34
e 23 35
e 23 36
e 23 42
e 23 49
e 23 51
e 23 53
e 23 63
e 23 75
e 23 85
e 23 88
e 23 89
e 23 90
e 23 91
e 23 115
e 23 134
e 23 137
e 23 142
e 24 28
e 24 29
e 24 52
e 24 54
e 24 60
e 24 91
e 24 116
e 24 117
e 24 138
e 24 159
e 24 160
e 24 175
e 24 194
e 25 26
e 25 27
e 25 34
e 25 39
e 25 43
e 25 64
e 25 65
e 25 66
e 25 69
e 25 80
e 25 93
e 25 96
e 25 97
e 25 105
e 25 107
e 25 112
e 25 116
e 25 120
e 25 144
e 25 161
e 26 27
e 26 35
e 26 39
e 26 44
e 26 64
e 26 65
e 26 66
e 26 70
e 26 78
e 26 81
e 26 94
e 26 96
e 26 97
e 26 106
e 26 108
e 26 117
e 26 118
e 26 144
e 26 157
e 27 36
e 27 39
e 27 64
e 27 65
e 27 66
e 27 71
e 27 79
e 27 82
e 27 95
e 27 96
e 27 97
e 27 109
e 27 113
e 27 114
e 27 119
e 27 121
e 27 144
e 27 158
e 28 29
e 28 52
e 28 60
e 28 67
e 28 98
e 28 118
e 28 119
e 28 164
e 28 165
e 28 166
e 28 177
e 28 196
e 29 52
e 29 60
e 29 68
e 29 99
e 29 120
e 29 121
e 29 145
e 29 167
e 29 168
e 29 169
e 29 178
e 30 32
e 30 33
e 30 38
e 30 40
e 30 41
e 30 42
e 30 45
e 30 46
e 30 54
e 30 67
e 30 68
e 30 69
e 30 70
e 30 71
e 30 111
e 30 122
e 30 123
e 30 124
e 30 179
e 31 41
e 31 43
e 31 44
e 31 48
e 31 62
e 31 72
e 31 74
e 31 77
e 31 84
e 31 87
e 31 98
e 31 100
e 31 101
e 31 102
e 31 103
e 31 104
e 31 125
e 31 133
e 31 170
e 32 33
e 32 38
e 32 45
e 32 46
e 32 47
e 32 48
e 32 49
e 32 54
e 32 67
e 32 68
e 32 78
e 32 79
e 32 110
e 32 111
e 32 128
e 32 129
e 32 150
e 32 180
e 32 181
e 33 38
e 33 45
e 33 46
e 33 50
e 33 51
e 33 54
e 33 67
e 33 68
e 33 80
e 33 81
e 33 82
e 33 111
e 33 130
e 33 131
e 33 132
e 33 151
e 33 182
e 34 35
e 34 36
e 34 43
e 34 53
e 34 69
e 34 80
e 34 88
e 34 89
e 34 90
e 34 93
e 34 105
e 34 107
e 34 112
e 34 115
e 34 116
e 34 120
e 34 161
e 35 36
e 35 44
e 35 53
e 35 70
e 35 78
e 35 81
e 35 88
e 35 89
e 35 90
e 35 94
e 35 106
e 35 108
e 35 115
e 35 117
e 35 118
e 35 157
e 36 53
e 36 71
e 36 79
e 36 82
e 36 88
e 36 89
e 36 90
e 36 95
e 36 109
e 36 113
e 36 114
e 36 115
e 36 119
e 36 121
e 36 158
e 37 39
e 37 53
e 37 55
e 37 56
e 37 57
e 37 58
e 37 59
e 37 72
e 37 92
e 37 110
e 37 126
e 37 127
e 37 135
e 37 138
e 37 139
e 37 140
e 37 145
e 37 176
e 38 45
e 38 46
e 38 54
e 38 61
e 38 62
e 38 63
e 38 67
e 38 68
e 38 93
e 38 94
e 38 95
e 38 111
e 38 143
e 38 162
e 38 163
e 39 53
e 39 64
e 39 65
e 39 66
e 39 72
e 39 96
e 39 97
e 39 110
e 39 126
e 39 127
e 39 135
e 39 138
e 39 144
e 39 145
e 39 176
e 40 41
e 40 42
e 40 47
e 40 50
e 40 61
e 40 69
e 40 70
e 40 71
e 40 73
e 40 76
e 40 83
e 40 86
e 40 99
e 40 122
e 40 123
e 40 124
e 40 136
e 40 141
e 40 179
e 41 42
e 41 48
e 41 62
e 41 69
e 41 70
e 41 71
e 41 74
e 41 77
e 41 84
e 41 87
e 41 98
e 41 122
e 41 123
e 41 124
e 41 133
e 41 179
e 42 49
e 42 51
e 42 63
e 42 69
e 42 70
e 42 71
e 42 75
e 42 85
e 42 91
e 42 122
e 42 123
e 42 124
e 42 134
e 42 137
e 42 142
e 42 179
e 43 44
e 43 69
e 43 72
e 43 80
e 43 93
e 43 100
e 43 101
e 43 102
e 43 103
e 43 104
e 43 105
e 43 107
e 43 112
e 43 116
e 43 120
e 43 125
e 43 161
e 43 170
e 44 70
e 44 72
e 44 78
e 44 81
e 44 94
e 44 100
e 44 101
e 44 102
e 44 103
e 44 104
e 44 106
e 44 108
e 44 117
e 44 118
e 44 125
e 44 157
e 44 170
e 45 46
e 45 54
e 45 67
e 45 68
e 45 73
e 45 74
e 45 75
e 45 105
e 45 106
e 45 111
e 45 126
e 45 146
e 45 147
e 45 171
e 46 54
e 46 67
e 46 68
e 46 76
e 46 77
e 46 107
e 46 108
e 46 109
e 46 111
e 46 127
e 46 148
e 46 149
e 46 172
e 47 48
e 47 49
e 47 50
e 47 61
e 47 73
e 47 76
e 47 78
e 47 79
e 47 83
e 47 86
e 47 99
e 47 110
e 47 128
e 47 129
e 47 136
e 47 141
e 47 150
e 47 180
e 47 181
e 48 49
e 48 62
e 48 74
e 48 77
e 48 78
e 48 79
e 48 84
e 48 87
e 48 98
e 48 110
e 48 128
e 48 129
e 48 133
e 48 150
e 48 180
e 48 181
e 49 51
e 49 63
e 49 75
e 49 78
e 49 79
e 49 85
e 49 91
e 49 110
e 49 128
e 49 129
e 49 134
e 49 137
e 49 142
e 49 150
e 49 180
e 49 181
e 50 51
e 50 61
e 50 73
e 50 76
e 50 80
e 50 81
e 50 82
e 50 83
e 50 86
e 50 99
e 50 130
e 50 131
e 50 132
e 50 136
e 50 141
e 50 151
e 50 182
e 51 63
e 51 75
e 51 80
e 51 81
e 51 82
e 51 85
e 51 91
e 51 130
e 51 131
e 51 132
e 51 134
e 51 137
e 51 142
e 51 151
e 51 182
e 52 60
e 52 136
e 52 137
e 52 157
e 52 158
e 52 187
e 52 188
e 52 198
e 53 72
e 53 88
e 53 89
e 53 90
e 53 110
e 53 115
e 53 126
e 53 127
e 53 135
e 53 138
e 53 145
e 53 176
e 54 67
e 54 68
e 54 91
e 54 111
e 54 116
e 54 117
e 54 138
e 54 159
e 54 160
e 54 175
e 54 194
e 55 56
e 55 57
e 55 58
e 55 59
e 55 88
e 55 92
e 55 100
e 55 122
e 55 139
e 55 140
e 55 146
e 55 154
e 55 159
e 55 167
e 55 183
e 55 189
e 56 57
e 56 58
e 56 59
e 56 64
e 56 89
e 56 92
e 56 101
e 56 139
e 56 140
e 56 143
e 56 148
e 56 155
e 56 164
e 56 168
e 56 187
e 57 58
e 57 59
e 57 65
e 57 90
e 57 92
e 57 102
e 57 130
e 57 139
e 57 140
e 57 152
e 57 156
e 57 160
e 57 165
e 57 184
e 58 59
e 58 92
e 58 103
e 58 123
e 58 128
e 58 131
e 58 139
e 58 140
e 58 149
e 58 153
e 58 169
e 58 185
e 58 190
e 59 66
e 59 92
e 59 104
e 59 124
e 59 129
e 59 132
e 59 139
e 59 140
e 59 147
e 59 166
e 59 186
e 59 188
e 60 141
e 60 142
e 60 161
e 60 176
e 60 189
e 60 190
e 60 195
e 61 62
e 61 63
e 61 73
e 61 76
e 61 83
e 61 86
e 61 93
e 61 94
e 61 95
e 61 99
e 61 136
e 61 141
e 61 143
e 61 162
e 61 163
e 62 63
e 62 74
e 62 77
e 62 84
e 62 87
e 62 93
e 62 94
e 62 95
e 62 98
e 62 133
e 62 143
e 62 162
e 62 163
e 63 75
e 63 85
e 63 91
e 63 93
e 63 94
e 63 95
e 63 134
e 63 137
e 63 142
e 63 143
e 63 162
e 63 163
e 64 65
e 64 66
e 64 89
e 64 96
e 64 97
e 64 101
e 64 143
e 64 144
e 64 148
e 64 155
e 64 164
e 64 168
e 64 187
e 65 66
e 65 90
e 65 96
e 65 97
e 65 102
e 65 130
e 65 144
e 65 152
e 65 156
e 65 160
e 65 165
e 65 184
e 66 96
e 66 97
e 66 104
e 66 124
e 66 129
e 66 132
e 66 144
e 66 147
e 66 166
e 66 186
e 66 188
e 67 68
e 67 98
e 67 111
e 67 118
e 67 119
e 67 164
e 67 165
e 67 166
e 67 177
e 67 196
e 68 99
e 68 111
e 68 120
e 68 121
e 68 145
e 68 167
e 68 168
e 68 169
e 68 178
e 69 70
e 69 71
e 69 80
e 69 93
e 69 105
e 69 107
e 69 112
e 69 116
e 69 120
e 69 122
e 69 123
e 69 124
e 69 161
e 69 179
e 70 71
e 70 78
e 70 81
e 70 94
e 70 106
e 70 108
e 70 117
e 70 118
e 70 122
e 70 123
e 70 124
e 70 157
e 70 179
e 71 79
e 71 82
e 71 95
e 71 109
e 71 113
e 71 114
e 71 119
e 71 121
e 71 122
e 71 123
e 71 124
e 71 158
e 71 179
e 72 100
e 72 101
e 72 102
e 72 103
e 72 104
e 72 110
e 72 125
e 72 126
e 72 127
e 72 135
e 72 138
e 72 145
e 72 170
e 72 176
e 73 74
e 73 75
e 73 76
e 73 83
e 73 86
e 73 99
e 73 105
e 73 106
e 73 126
e 73 136
e 73 141
e 73 146
e 73 147
e 73 171
e 74 75
e 74 77
e 74 84
e 74 87
e 74 98
e 74 105
e 74 106
e 74 126
e 74 133
e 74 146
e 74 147
e 74 171
e 75 85
e 75 91
e 75 105
e 75 106
e 75 126
e 75 134
e 75 137
e 75 142
e 75 146
e 75 147
e 75 171
e 76 77
e 76 83
e 76 86
e 76 99
e 76 107
e 76 108
e 76 109
e 76 127
e 76 136
e 76 141
e 76 148
e 76 149
e 76 172
e 77 84
e 77 87
e 77 98
e 77 107
e 77 108
e 77 109
e 77 127
e 77 133
e 77 148
e 77 149
e 77 172
e 78 79
e 78 81
e 78 94
e 78 106
e 78 108
e 78 110
e 78 117
e 78 118
e 78 128
e 78 129
e 78 150
e 78 157
e 78 180
e 78 181
e 79 82
e 79 95
e 79 109
e 79 110
e 79 113
e 79 114
e 79 119
e 79 121
e 79 128
e 79 129
e 79 150
e 79 158
e 79 180
e 79 181
e 80 81
e 80 82
e 80 93
e 80 105
e 80 107
e 80 112
e 80 116
e 80 120
e 80 130
e 80 131
e 80 132
e 80 151
e 80 161
e 80 182
e 81 82
e 81 94
e 81 106
e 81 108
e 81 117
e 81 118
e 81 130
e 81 131
e 81 132
e 81 151
e 81 157
e 81 182
e 82 95
e 82 109
e 82 113
e 82 114
e 82 119
e 82 121
e 82 130
e 82 131
e 82 132
e 82 151
e 82 158
e 82 182
e 83 84
e 83 85
e 83 86
e 83 99
e 83 112
e 83 113
e 83 136
e 83 141
e 83 152
e 83 153
e 83 173
e 83 192
e 84 85
e 84 87
e 84 98
e 84 112
e 84 113
e 84 133
e 84 152
e 84 153
e 84 173
e 84 192
e 85 91
e 85 112
e 85 113
e 85 134
e 85 137
e 85 142
e 85 152
e 85 153
e 85 173
e 85 192
e 86 87
e 86 99
e 86 114
e 86 135
e 86 136
e 86 141
e 86 154
e 86 155
e 86 156
e 86 174
e 86 193
e 87 98
e 87 114
e 87 133
e 87 135
e 87 154
e 87 155
e 87 156
e 87 174
e 87 193
e 88 89
e 88 90
e 88 100
e 88 115
e 88 122
e 88 146
e 88 154
e 88 159
e 88 167
e 88 183
e 88 189
e 89 90
e 89 101
e 89 115
e 89 143
e 89 148
e 89 155
e 89 164
e 89 168
e 89 187
e 90 102
e 90 115
e 90 130
e 90 152
e 90 156
e 90 160
e 90 165
e 90 184
e 91 116
e 91 117
e 91 134
e 91 137
e 91 138
e 91 142
e 91 159
e 91 160
e 91 175
e 91 194
e 92 96
e 92 125
e 92 139
e 92 140
e 92 162
e 92 171
e 92 172
e 92 174
e 92 178
e 92 191
e 93 94
e 93 95
e 93 105
e 93 107
e 93 112
e 93 116
e 93 120
e 93 143
e 93 161
e 93 162
e 93 163
e 94 95
e 94 106
e 94 108
e 94 117
e 94 118
e 94 143
e 94 157
e 94 162
e 94 163
e 95 109
e 95 113
e 95 114
e 95 119
e 95 121
e 95 143
e 95 158
e 95 162
e 95 163
e 96 97
e 96 125
e 96 144
e 96 162
e 96 171
e 96 172
e 96 174
e 96 178
e 96 191
e 97 115
e 97 144
e 97 150
e 97 151
e 97 163
e 97 173
e 97 175
e 97 177
e 97 195
e 98 118
e 98 119
e 98 133
e 98 164
e 98 165
e 98 166
e 98 177
e 98 196
e 99 120
e 99 121
e 99 136
e 99 141
e 99 145
e 99 167
e 99 168
e 99 169
e 99 178
e 100 101
e 100 102
e 100 103
e 100 104
e 100 122
e 100 125
e 100 146
e 100 154
e 100 159
e 100 167
e 100 170
e 100 183
e 100 189
e 101 102
e 101 103
e 101 104
e 101 125
e 101 143
e 101 148
e 101 155
e 101 164
e 101 168
e 101 170
e 101 187
e 102 103
e 102 104
e 102 125
e 102 130
e 102 152
e 102 156
e 102 160
e 102 165
e 102 170
e 102 184
e 103 104
e 103 123
e 103 125
e 103 128
e 103 131
e 103 149
e 103 153
e 103 169
e 103 170
e 103 185
e 103 190
e 104 124
e 104 125
e 104 129
e 104 132
e 104 147
e 104 166
e 104 170
e 104 186
e 104 188
e 105 106
e 105 107
e 105 112
e 105 116
e 105 120
e 105 126
e 105 146
e 105 147
e 105 161
e 105 171
e 106 108
e 106 117
e 106 118
e 106 126
e 106 146
e 106 147
e 106 157
e 106 171
e 107 108
e 107 109
e 107 112
e 107 116
e 107 120
e 107 127
e 107 148
e 107 149
e 107 161
e 107 172
e 108 109
e 108 117
e 108 118
e 108 127
e 108 148
e 108 149
e 108 157
e 108 172
e 109 113
e 109 114
e 109 119
e 109 121
e 109 127
e 109 148
e 109 149
e 109 158
e 109 172
e 110 126
e 110 127
e 110 128
e 110 129
e 110 135
e 110 138
e 110 145
e 110 150
e 110 176
e 110 180
e 110 181
e 111 133
e 111 134
e 111 183
e 111 184
e 111 185
e 111 186
e 111 191
e 111 197
e 112 113
e 112 116
e 112 120
e 112 152
e 112 153
e 112 161
e 112 173
e 112 192
e 113 114
e 113 119
e 113 121
e 113 152
e 113 153
e 113 158
e 113 173
e 113 192
e 114 119
e 114 121
e 114 135
e 114 154
e 114 155
e 114 156
e 114 158
e 114 174
e 114 193
e 115 150
e 115 151
e 115 163
e 115 173
e 115 175
e 115 177
e 115 195
e 116 117
e 116 120
e 116 138
e 116 159
e 116 160
e 116 161
e 116 175
e 116 194
e 117 118
e 117 138
e 117 157
e 117 159
e 117 160
e 117 175
e 117 194
e 118 119
e 118 157
e 118 164
e 118 165
e 118 166
e 118 177
e 118 196
e 119 121
e 119 158
e 119 164
e 119 165
e 119 166
e 119 177
e 119 196
e 120 121
e 120 145
e 120 161
e 120 167
e 120 168
e 120 169
e 120 178
e 121 145
e 121 158
e 121 167
e 121 168
e 121 169
e 121 178
e 122 123
e 122 124
e 122 146
e 122 154
e 122 159
e 122 167
e 122 179
e 122 183
e 122 189
e 123 124
e 123 128
e 123 131
e 123 149
e 123 153
e 123 169
e 123 179
e 123 185
e 123 190
e 124 129
e 124 132
e 124 147
e 124 166
e 124 179
e 124 186
e 124 188
e 125 162
e 125 170
e 125 171
e 125 172
e 125 174
e 125 178
e 125 191
e 126 127
e 126 135
e 126 138
e 126 145
e 126 146
e 126 147
e 126 171
e 126 176
e 127 135
e 127 138
e 127 145
e 127 148
e 127 149
e 127 172
e 127 176
e 128 129
e 128 131
e 128 149
e 128 150
e 128 153
e 128 169
e 128 180
e 128 181
e 128 185
e 128 190
e 129 132
e 129 147
e 129 150
e 129 166
e 129 180
e 129 181
e 129 186
e 129 188
e 130 131
e 130 132
e 130 151
e 130 152
e 130 156
e 130 160
e 130 165
e 130 182
e 130 184
e 131 132
e 131 149
e 131 151
e 131 153
e 131 169
e 131 182
e 131 185
e 131 190
e 132 147
e 132 151
e 132 166
e 132 182
e 132 186
e 132 188
e 133 134
e 133 183
e 133 184
e 133 185
e 133 186
e 133 191
e 133 197
e 134 137
e 134 142
e 134 183
e 134 184
e 134 185
e 134 186
e 134 191
e 134 197
e 135 138
e 135 145
e 135 154
e 135 155
e 135 156
e 135 174
e 135 176
e 135 193
e 136 137
e 136 141
e 136 157
e 136 158
e 136 187
e 136 188
e 136 198
e 137 142
e 137 157
e 137 158
e 137 187
e 137 188
e 137 198
e 138 145
e 138 159
e 138 160
e 138 175
e 138 176
e 138 194
e 139 140
e 139 180
e 139 193
e 139 194
e 139 196
e 139 197
e 139 198
e 140 144
e 140 170
e 140 179
e 140 181
e 140 182
e 140 192
e 141 142
e 141 161
e 141 176
e 141 189
e 141 190
e 141 195
e 142 161
e 142 176
e 142 189
e 142 190
e 142 195
e 143 148
e 143 155
e 143 162
e 143 163
e 143 164
e 143 168
e 143 187
e 144 170
e 144 179
e 144 181
e 144 182
e 144 192
e 145 167
e 145 168
e 145 169
e 145 176
e 145 178
e 146 147
e 146 154
e 146 159
e 146 167
e 146 171
e 146 183
e 146 189
e 147 166
e 147 171
e 147 186
e 147 188
e 148 149
e 148 155
e 148 164
e 148 168
e 148 172
e 148 187
e 149 153
e 149 169
e 149 172
e 149 185
e 149 190
e 150 151
e 150 163
e 150 173
e 150 175
e 150 177
e 150 180
e 150 181
e 150 195
e 151 163
e 151 173
e 151 175
e 151 177
e 151 182
e 151 195
e 152 153
e 152 156
e 152 160
e 152 165
e 152 173
e 152 184
e 152 192
e 153 169
e 153 173
e 153 185
e 153 190
e 153 192
e 154 155
e 154 156
e 154 159
e 154 167
e 154 174
e 154 183
e 154 189
e 154 193
e 155 156
e 155 164
e 155 168
e 155 174
e 155 187
e 155 193
e 156 160
e 156 165
e 156 174
e 156 184
e 156 193
e 157 158
e 157 187
e 157 188
e 157 198
e 158 187
e 158 188
e 158 198
e 159 160
e 159 167
e 159 175
e 159 183
e 159 189
e 159 194
e 160 165
e 160 175
e 160 184
e 160 194
e 161 176
e 161 189
e 161 190
e 161 195
e 162 163
e 162 171
e 162 172
e 162 174
e 162 178
e 162 191
e 163 173
e 163 175
e 163 177
e 163 195
e 164 165
e 164 166
e 164 168
e 164 177
e 164 187
e 164 196
e 165 166
e 165 177
e 165 184
e 165 196
e 166 177
e 166 186
e 166 188
e 166 196
e 167 168
e 167 169
e 167 178
e 167 183
e 167 189
e 168 169
e 168 178
e 168 187
e 169 178
e 169 185
e 169 190
e 170 179
e 170 181
e 170 182
e 170 192
e 171 172
e 171 174
e 171 178
e 171 191
e 172 174
e 172 178
e 172 191
e 173 175
e 173 177
e 173 192
e 173 195
e 174 178
e 174 191
e 174 193
e 175 177
e 175 194
e 175 195
e 176 189
e 176 190
e 176 195
e 177 195
e 177 196
e 178 191
e 179 181
e 179 182
e 179 192
e 180 181
e 180 193
e 180 194
e 180 196
e 180 197
e 180 198
e 181 182
e 181 192
e 182 192
e 183 184
e 183 185
e 183 186
e 183 189
e 183 191
e 183 197
e 184 185
e 184 186
e 184 191
e 184 197
e 185 186
e 185 190
e 185 191
e 185 197
e 186 188
e 186 191
e 186 197
e 187 188
e 187 198
e 188 198
e 189 190
e 189 195
e 190 195
e 191 197
e 193 194
e 193 196
e 193 197
e 193 198
e 194 196
e 194 197
e 194 198
e 196 197
e 196 198
e 197 198
